63 865
3 6 9 13 14 15 20 25 28 29 30 34 35 39 48 51 54 57 59 60 61 62
4 5 7 11 12 13 14 16 17 18 19 20 21 25 26 28 32 34 36 38 41 42 43 44 47 50 51 53 54 55 57 60 61 62
4 7 10 13 14 16 17 19 20 21 22 23 24 26 27 30 31 32 33 35 36 38 39 42 45 49 51 55 56 57 59 60
0 5 12 15 16 19 20 23 24 25 30 31 34 37 39 46 51 53 54 58 62
1 2 5 6 10 19 20 23 25 29 30 32 33 34 35 36 41 42 44 47 51 52 53 55 58 59 60 61 62
1 3 4 6 7 8 11 14 15 18 20 21 22 24 25 28 29 36 42 43 44 50 51 56 57 58 61 62
0 4 5 8 10 13 14 19 22 23 25 26 28 29 30 39 43 44 45 46 49 51 56 60 61 62
1 2 5 8 9 10 13 14 15 17 19 25 26 27 30 31 34 36 37 38 40 41 42 46 48 50 51 53 55 56 57 58 61
5 6 7 11 12 14 15 17 18 20 23 24 25 26 27 28 29 32 33 35 38 39 44 46 47 48 51 52 53 57 58 60 62
0 7 11 12 13 15 20 24 25 28 29 30 31 32 34 35 36 37 43 45 47 48 49 51 52 53 56 57 61
2 4 6 7 11 13 15 16 20 22 23 24 25 28 32 34 37 39 46 47 48 50 52 58 59 60
1 5 8 9 10 13 15 18 19 21 23 31 33 35 38 40 44 46 47 48 51 54 55 56 58
1 3 8 9 14 15 17 20 24 26 28 29 30 32 34 40 43 47 48 49 51 53 54 56 57 58 60 62
0 1 2 6 7 9 10 11 14 15 19 20 21 22 23 25 26 27 30 31 32 34 36 37 38 40 41 49 53 59 60 61
0 1 2 5 6 7 8 12 13 16 18 19 21 22 25 26 27 29 30 32 34 35 38 40 44 47 51 58 61
0 3 5 7 8 9 10 11 12 13 16 17 18 23 24 26 27 28 29 34 35 38 39 40 41 44 45 46 48 49 51 53 56 58
1 2 3 10 14 15 18 20 21 22 23 28 33 34 38 40 41 42 43 45 49 50 53 56 59 61
1 2 7 8 12 15 18 21 22 23 24 27 28 31 32 33 36 37 43 45 46 49 56 59 60 62
1 5 8 11 14 15 16 17 19 24 26 29 32 33 34 35 36 37 38 40 42 44 49 51 52 56 57 59
1 2 3 4 6 7 11 13 14 18 21 23 24 26 27 28 31 34 37 38 39 41 43 44 46 48 51 54 59 61 62
0 1 2 3 4 5 8 9 10 12 13 16 21 23 24 27 31 32 34 38 40 43 47 52 55 58 59 62
1 2 5 11 13 14 16 17 19 20 22 24 26 27 31 33 36 37 43 45 48 54 56 57
2 5 6 10 13 14 16 17 21 23 26 27 32 33 35 36 40 43 47 48 52 58 59 61 62
2 3 4 6 8 10 11 13 15 16 17 19 20 22 24 26 28 29 33 36 37 38 41 45 46 48 49 52 53 57 58 59
2 3 5 8 9 10 12 15 17 18 19 20 21 23 26 28 29 34 36 37 38 44 52 53 55 57 59 60 61
0 1 3 4 5 6 7 8 9 10 13 14 27 29 34 35 36 38 43 48 55 56 58 60 62
1 2 6 7 8 12 13 14 15 18 19 21 22 23 24 27 28 29 31 32 36 37 38 42 44 47 49 50 51 52 55 58 59 62
2 7 8 13 14 15 17 19 20 21 22 25 26 34 37 41 46 48 49 50 51 52 54 55 56 57 58 62
0 1 5 6 8 9 10 12 15 16 17 19 23 24 26 30 31 33 36 39 40 42 45 46 47 57 61
0 4 5 6 8 9 12 14 15 18 23 24 25 26 31 32 34 37 38 40 43 44 46 51 54 56 57
0 2 3 4 6 7 9 12 13 14 28 31 32 33 36 43 45 46 47 48 53 56 57 62
2 3 7 9 11 13 17 19 20 21 26 28 29 30 34 35 40 43 44 47 48 49 52 53 60 62
1 2 4 8 9 10 12 13 14 17 18 20 22 26 29 30 33 34 40 42 44 46 47 51 53 55 57 58 59 60 61
2 4 8 11 16 17 18 21 22 23 28 30 32 38 39 40 42 44 49 50 51 52 55 62
0 1 3 4 7 9 10 12 13 14 15 16 18 19 20 24 25 27 29 31 32 37 40 47 48 50 53 61
0 2 4 8 9 11 14 15 18 22 25 31 36 37 46 48 53 54 55 56 57 61
1 2 4 5 7 9 13 17 18 21 22 23 24 25 26 28 30 35 38 41 44 45 49 51 53 54 56 58 59
3 7 9 10 13 17 18 19 21 23 24 26 27 29 34 35 39 44 45 46 49 50 51 53 55 56 57 59 60
1 2 7 8 11 13 14 15 16 18 19 20 23 24 25 26 29 33 36 40 42 43 44 48 52 53 54 55 56 58 59 60 61 62
0 2 3 6 8 10 15 19 28 33 37 42 43 44 45 48 50 51 54 55 57 60 62
7 11 12 13 14 15 16 18 20 22 28 29 31 32 33 34 38 44 45 48 49 51 62
1 4 7 13 15 16 19 23 27 36 42 43 50 51 52 53 56 59 60 61
1 2 4 5 7 16 18 26 28 32 33 38 39 41 46 49 52 53 55 57 58 59 61
1 5 6 9 12 16 17 19 20 21 22 25 29 30 31 38 39 41 44 45 46 48 49 50 51 55 58 62
1 4 5 6 8 11 14 15 18 19 24 26 29 31 32 33 36 37 38 39 40 43 45 48 50 51 52 55 57
2 6 9 15 16 17 21 23 28 30 36 37 39 40 43 44 46 47 51 52 54 55 57 59 60 62
3 6 7 8 10 11 15 17 19 23 27 28 29 30 32 35 37 42 43 45 47 49 52
1 4 8 9 10 11 12 14 20 22 26 28 30 31 32 34 45 46 50 51 53 56 57 58 59 60 62
0 7 8 9 10 11 12 15 19 21 22 23 25 27 30 31 34 35 38 39 40 43 44 49 51 53 54 57 60 61
2 6 9 12 13 15 16 17 18 23 26 27 31 33 36 37 40 42 43 46 48 50 51 52 55 56 61 62
1 5 7 10 16 26 27 33 34 37 39 41 43 44 47 49 52 56 57 58 59 60
0 1 2 3 4 5 6 7 8 9 11 12 14 15 18 19 26 27 29 32 33 36 37 39 40 41 43 44 45 47 48 49 59 60 61
4 8 9 10 18 20 22 23 24 26 27 31 33 38 41 42 44 45 46 49 50 56 57 59 61 62
1 3 4 7 8 9 12 13 15 16 23 24 30 31 32 34 35 36 37 38 41 42 47 48 54 57 60
0 1 3 11 12 19 21 27 29 35 36 38 39 45 48 53 57 60
1 2 4 7 11 20 24 25 26 27 32 33 35 37 38 39 42 43 44 45 49 56 57 59 61 62
2 5 6 7 9 11 12 15 16 17 18 21 25 27 29 30 35 36 37 38 41 47 49 50 52 55 57
0 1 2 5 7 8 9 12 18 21 23 24 27 28 29 30 32 35 37 39 42 44 45 47 48 50 52 53 54 55 56 58 61 62
3 4 5 7 8 10 11 12 14 15 20 22 23 25 26 27 32 36 38 42 43 47 50 57 59 61 62
0 2 4 10 13 16 17 18 19 20 22 23 24 26 32 36 37 38 41 42 45 47 50 51 52 55 58
0 1 2 4 6 8 10 12 13 17 24 25 31 32 37 38 39 41 45 47 48 50 51 53 54 61
0 1 4 5 6 7 9 13 14 16 19 22 24 28 32 34 35 38 41 42 48 49 51 52 55 57 58 60
0 1 3 4 5 6 8 12 17 19 20 22 25 26 27 30 31 33 38 39 40 43 45 47 49 52 55 57 58
